5 5
2 93 0 82 1 93 3 44 4 91
3 35 4 29 1 6 2 37 0 89
1 85 0 58 2 64 4 31 3 50
3 80 0 60 2 14 4 70 1 11
3 27 4 69 1 79 0 38 2 62
-1
0 1 2 4 5
0 1 4 5
0 1 2 5
0 3 5
0 3 4 5
-2
102 271 469 477
36 164 196
111 194 293
156 261
202 315 306

460 6
11 1 16 23 9
10 7 22 2 19
0 8 12 17 24
5 20 15 14 3
6 21 13 18 4
